
Gurobi 6.5.2 (linux64) logging started Wed Sep 14 14:58:48 2016

Optimize a model with 21 rows, 41 columns and 91 nonzeros
Coefficient statistics:
  Matrix range    [1e+00, 2e+00]
  Objective range [7e+00, 9e+01]
  Bounds range    [1e+00, 1e+00]
  RHS range       [1e+00, 1e+00]
Presolve removed 8 rows and 4 columns
Presolve time: 0.00s
Presolved: 13 rows, 37 columns, 77 nonzeros
Variable types: 0 continuous, 37 integer (37 binary)
Found heuristic solution: objective 403.0000000

Root relaxation: objective 3.200000e+02, 17 iterations, 0.00 seconds

    Nodes    |    Current Node    |     Objective Bounds      |     Work
 Expl Unexpl |  Obj  Depth IntInf | Incumbent    BestBd   Gap | It/Node Time

*    0     0               0     320.0000000  320.00000  0.00%     -    0s

Explored 0 nodes (17 simplex iterations) in 0.00 seconds
Thread count was 8 (of 8 available processors)

Optimal solution found (tolerance 1.00e-04)
Best objective 3.200000000000e+02, best bound 3.200000000000e+02, gap 0.0%
